1376774498852239870505,6,1,2,09,2,1,2,02,8,1,2,08,8,1,2,015,12,1,2,03,14,1,2,010,11,1,2,04,3,1,2,014,15,1,2,010,11,1,2,08,8,1,2,01,7,1,2,09,7,1,2,06,15,1,2,05,12,1,2,09,4,1,2,07,4,1,2,05,10,1,2,03,8,1,2,07,6,1,2,014,12,1,2,03,11,1,2,012,1,1,2,01,7,1,2,07,12,1,2,07,8,1,2,014,11,1,2,07,10,1,2,013,9,1,2,02,6,1,2,06,5,1,2,01,5,1,2,04,9,1,2,015,5,1,2,014,1,1,2,09,14,1,2,05,8,1,2,03,14,1,2,05,15,1,2,06,8,1,2,014,5,1,2,04,4,1,2,01,1,1,2,05,7,1,2,03,12,1,2,013,3,1,2,05,2,1,2,07,6,1,2,04,13,1,2,011,6,1,2,0